69
16
0 16 20 22 24 25 26 32 34 38 40 41 43 45 48 49 51 53 55 56 58 59 61 62 64 67 68
1 16 22 25 26 28 32 34 36 40 41 42 43 44 46 47 48 49 51 52 53 54 55 56 57 58 59 60 61 62 64 67 68
2 16 17 22 25 26 27 32 36 39 41 42 43 45 46 47 48 49 55 56 57 59 60 61 64 65 67 68
3 16 22 25 26 28 30 31 36 39 40 41 44 45 46 48 49 50 53 54 57 58 59 60 61 62 64
4 16 17 22 24 26 30 32 36 37 38 42 44 45 46 47 48 49 56 57 58 59 60 62 64 67 68
5 16 17 18 20 24 25 26 28 31 32 34 36 39 41 42 43 46 50 51 54 56 58 59 61 63 64
6 16 17 22 24 25 36 38 41 43 44 45 46 48 49 50 55 56 57 58 59 60 62 63 64 68
7 16 20 22 23 29 30 32 39 40 44 45 47 48 51 53 55 57 60 61 63 64 66 67
8 16 20 24 31 32 34 35 38 39 40 48 55 56 57 60 61 62 63 64 68
9 17 19 22 24 25 26 34 36 38 39 40 41 43 45 46 51 54 55 56 57 61 67 68
10 22 25 31 43 44 46 53 54 55 59 61 66
11 16 17 20 21 28 32 35 41 44 49 50 51 56 58 62 67
12 17 20 21 22 24 25 26 28 30 31 32 36 40 44 49 56 63 65
13 17 27 33 39 52 54
14 30 31 36 53 60
15 32 40 42 68
